
******************************************************************************
This program contains Ipopt, a library for large-scale nonlinear optimization.
 Ipopt is released as open source code under the Eclipse Public License (EPL).
         For more information visit http://projects.coin-or.org/Ipopt
******************************************************************************

This is Ipopt version 3.12.6, running with linear solver ma57.

Number of nonzeros in equality constraint Jacobian...:   612500
Number of nonzeros in inequality constraint Jacobian.:        0
Number of nonzeros in Lagrangian Hessian.............:   368550

Total number of variables............................:   123200
                     variables with only lower bounds:        0
                variables with lower and upper bounds:        0
                     variables with only upper bounds:        0
Total number of equality constraints.................:   123200
Total number of inequality constraints...............:        0
        inequality constraints with only lower bounds:        0
   inequality constraints with lower and upper bounds:        0
        inequality constraints with only upper bounds:        0

iter    objective    inf_pr   inf_du lg(mu)  ||d||  lg(rg) alpha_du alpha_pr  ls
   0  0.0000000e+00 1.44e+02 0.00e+00  -1.0 0.00e+00    -  0.00e+00 0.00e+00   0
   1  0.0000000e+00 6.64e+00 1.27e-01  -1.0 1.22e+01  -2.0 1.00e+00 1.00e+00h  1
   2  0.0000000e+00 2.34e-03 1.74e-03  -1.0 5.24e-01  -2.5 1.00e+00 1.00e+00h  1
   3  0.0000000e+00 3.72e-09 2.13e-07  -3.8 1.92e-04  -3.0 1.00e+00 1.00e+00h  1
Cannot recompute multipliers for feasibility problem.  Error in eq_mult_calculator

Number of Iterations....: 3

                                   (scaled)                 (unscaled)
Objective...............:   0.0000000000000000e+00    0.0000000000000000e+00
Dual infeasibility......:   2.1258379035632511e-07    2.1258379035632511e-07
Constraint violation....:   3.7244633488420220e-09    3.7244633488420220e-09
Complementarity.........:   0.0000000000000000e+00    0.0000000000000000e+00
Overall NLP error.......:   3.7244633488420220e-09    2.1258379035632511e-07


Number of objective function evaluations             = 4
Number of objective gradient evaluations             = 4
Number of equality constraint evaluations            = 4
Number of inequality constraint evaluations          = 0
Number of equality constraint Jacobian evaluations   = 4
Number of inequality constraint Jacobian evaluations = 0
Number of Lagrangian Hessian evaluations             = 3
Total CPU secs in IPOPT (w/o function evaluations)   =      3.533
Total CPU secs in NLP function evaluations           =      1.440

EXIT: Optimal Solution Found.
Note: The following floating-point exceptions are signalling: IEEE_INVALID_FLAG IEEE_DIVIDE_BY_ZERO

************************ CUTEst statistics ************************


 Package used            :  IPOPT
 Problem                 :  YATP1SQ   
 # variables             =          123200
 # constraints           =          123200
 # objective functions   =        0.9000000E+01
 # objective gradients   =        0.5000000E+01
 # objective Hessians    =        0.4000000E+01
 # Hessian-vector prdct  =        0.0000000E+00
 # constraints functions =        0.1000000E+02
 # constraints gradients =        0.6000000E+01
 # constraints Hessians  =        0.4000000E+01
 Exit code               =               0
 Final f                 =   0.0000000E+00
 Set up time             =            1.70 seconds
 Solve time              =            5.97 seconds


******************************************************************

System Time =       4.8990001678 s.
